(set-logic HORN)
(set-info :source |
    Benchmark: Horn constraint system (3 clauses, 2 relation symbols)
    Generated by Eldarica (http://lara.epfl.ch/w/eldarica)
    Output by Princess (http://www.philipp.ruemmer.org/princess.shtml)
|)
(set-info :status sat)
(declare-fun predr5_1 (Int Int Int Int) Bool)
(declare-fun predr0_2 (Int Int Int Int Int Int) Bool)
(assert (forall ((var0 Int)) (forall ((var1 Int)) (forall ((var2 Int)) (forall ((var3 Int)) (not (and (and (not (= 0 (+ (* 3 var2 ) (* (- 1) var1 ) ) ) ) (<= 0 var2 ) ) (predr5_1 var3 var2 var1 var0 ) ) ) ) ) ) ) )
(assert (forall ((var0 Int)) (forall ((var1 Int)) (forall ((var2 Int)) (forall ((var3 Int)) (forall ((var4 Int)) (not (and (predr0_2 var4 var3 var2 var1 var0 0 ) (not (predr5_1 var4 var2 0 0 ) ) ) ) ) ) ) ) ) )
(assert (forall ((var0 Int)) (forall ((var1 Int)) (forall ((var2 Int)) (forall ((var3 Int)) (not (and (<= 0 var0 ) (not (predr0_2 var2 var3 var0 var2 var1 var0 ) ) ) ) ) ) ) ) )
(check-sat)
